(set-logic QF_NRA)
(declare-fun x1 () Real)
(declare-fun x2 () Real)
(declare-fun x3 () Real)
(declare-fun x4 () Real)
(declare-fun x5 () Real)
(declare-fun x6 () Real)
(declare-fun x7 () Real)
(declare-fun x8 () Real)

(assert (>= (- 6 ( + ( + (* -10 (* x1 x2)) (* -2 (* x2 x3)) ) (* -4 (* x3 x4)) )) 0))
(assert (>= (- 9 ( + ( + (* 9 (* x2 x3)) (* -9 (* x2 x5)) ) (* x1 x3) )) 0))
(assert (>= (- -3 ( + ( + (* -3 (* x1 x6)) (* 2 (* x6 x6)) ) (* 7 (* x2 x4)) )) 0))
(assert (>= (- -9 ( + ( + ( + ( + (* 5 (* x2 x6)) (* 10 x7) ) (* -4 x4) ) (* -8 (* x4 x6)) ) (* -7 (* x2 x7)) )) 0))
(assert (>= (- -10 ( + ( + ( + (* 6 (* x1 x4)) (* 3 (* x3 x4)) ) (* -2 x1) ) (* -3 (* x4 x8)) )) 0))
(assert (>= (- -2 (* -7 (* x2 x2))) 0))
(check-sat)
(exit)